language Essence 1.3

letting bot_end be [43, 492, 193, 276, 36, 68, 382, 119, 438, 67, 455, 179, 408, 70, 446, 200, 160; int(1..17)]
letting bot_start be [538, 249, 442, 512, 382, 329, 10, 506, 12, 536, 307, 475, 79, 437, 140, 25, 426; int(1..17)]
letting buffer_col be 2
letting buffer_row be 2
letting corridor_size be 1
letting n_shelves_col be 3
letting n_shelves_row be 19
letting shelf_col_size be 2
letting shelf_row_size be 1
